%% Produces 1 plate.
%% 2021/08/17: Created based on a lab request. It takes about 2m 14s

%% Plate dimentions: (this is a 384-well plate)
num_rows = 16; %% height
num_cols = 24; %% width


horizontal_cell_lines = 1;
vertical_cell_lines = 1;

allow_empty_wells = true;

% New and used!
concentrations_on_different_rows = true;
concentrations_on_different_columns = true;

% New and unused! (Restriction: replicates_on_different_plates /\ replicates_on_same_plate == false)
replicates_on_different_plates = false;
replicates_on_same_plate = true;

size_empty_edge = 1;


%%% Compounds %%%
compounds = 85; %% number of drugs/compounds
compound_concentrations = [1| i in 1..compounds]; 

compound_names = ["comp\(i)" | i in 1..compounds];

compound_replicates	 = [3| i in 1..compounds]; 

compound_concentration_names = array2d(1..compounds, 1..1,[ "10" | i in 1..compounds]);

compound_concentration_indicators = [""]; 


%%% Combinations %%%
combinations = 	0;
combination_names = [];
combination_concentration_names = [];
combination_concentrations = 0;


%%% Controls %%%
num_controls = 9;
control_names = ["[cont\(i)]" | i in 1..num_controls];

control_concentrations = [1,1,3,3,3,3,3,3,3];

control_concentration_names =  [|"10","0","0"|"0","0","0"|"L","M","H"|"L","M","H"|"L","M","H"|"L","M","H"|"L","M","H"|"L","M","H"|"L","M","H"|];

control_replicates = [6,4,2,2,2,2,2,2,2];
